80 873089065
75 66 45 72 30 60 3 35 65 46 42 59 68 24 77 29 25 5 27 33 70 4 17 52 53 36 41 14 61 44 2 13 67 63 39 31 78 19 76 58 62 73 56 10 48 79 51 26 54 32 40 15 74 49 71 28 11 22 9 23 7 57 21 1 55 37 38 50 18 69 6 12 47 16 8 20 64 80 43 34 
